(set-info :smt-lib-version 2.6)
(set-logic QF_SLIA)
(set-info :source |
Generated by: Dmitry Blotsky1, Federico Mora, Murphy Berzish, Yunhui Zheng, Ifaz Kabir, Vijay Ganesh, Zhengyang Lu
Generated on: 2018-01-24
Generator: StringFuzz
Application: Evaluate string solvers
Description: transformed by StringFuzz, a modular string and regex fuzzer, from an industrial benchmark
Target solver: Z3str3, CVC4, Z3str2, Norn
Publications: Blotsky, D., Mora, F., Berzish, M., Zheng, Y., Kabir, I., & Ganesh, V. (2018). Stringfuzz: A fuzzer for string solvers. In CAV 2018.
|)
(set-info :license "https://creativecommons.org/licenses/by/4.0/")
(set-info :category "random")
(set-info :status unknown)

(declare-const x String)
(declare-const y String)
(assert (str.in_re x (re.* (re.++ (re.* (str.to_re "}")) (str.to_re "%")))))
(assert (= (str.to.int x) 0))
(assert (not (= x "")))
(assert (not (= x "A`6\\us=qIed@KnS^>KjErWu'y-r5gFm[v\\='dP8x' '@[~gSsAA'\x0c'jT|t8'\x0c''\x0c'xc'")))
(assert (not (= x "KLyfaCodU*[<d`u:P2}ArU6U'y>/@'\r'x\\BOpU99s]W1^p'\x0c'x\\JDv0aS9)Ywn6>|sn'\r'WI'\x0c'UU')QI")))
(check-sat)

(exit)
